Route #1: 77 46 12 37 108 90 5 76 49 62 38 103
Route #2: 145 147 17 63 9 34 50 130 118 11 78
Route #3: 56 144 109 142 87 137 44 104 74 79 21 127 16 126
Route #4: 100 53 30 105 15 52 107 65 150 148 143 149 4 146 47 139
Route #5: 32 1 51 2 83 29 129 75 91 45 141 135 111
Route #6: 66 72 128 84 20 131 80 120 81 138 27 119
Route #7: 59 22 48 57 6 102 136 41 94 33 125 124
Route #8: 122 106 19 40 14 132 98 112 60 121 3 101
Route #9: 36 8 23 24 58 133 68 110 88 64 42 73 123 71
Route #10: 10 93 92 18 25 95 96 86 97 69 140 115 85
Route #11: 54 39 35 31 82 113 26 61 7 43 134 55
Route #12: 13 67 99 114 116 28 70 117 89
Cost 2095
